robust/generate/spp_dkp_Lefebvre_et_al_2026/src/shortest_path_2_4.kp
46
72

[28.22 22.85]

[14 72]
